% demand
num_movements = 22;
loading_factor = [1250, 1100, 1200, 1500, 1150, 1600, 1950, 1100, 900, 1100, 1250, 1400, 1800, 800, 1400, 1950, 1000, 1750, 1250, 2000, 1450, 1650];
pickup_time = [0, 0, 0, 0, 0, 0, 1, 1, 2, 3, 3, 3, 3, 3, 4, 4, 4, 4, 4, 6, 6, 6];
delivery_time = [1, 1, 1, 1, 1, 1, 4, 4, 7, 4, 4, 4, 4, 4, 8, 6, 5, 6, 6, 8, 7, 8];

% transporter definition
total_capacity = 11000;
num_decks = 4;
capacity = [3000, 3000, 1000, 4000];

% ways out of decks
num_ways_out = 2;
paths_out = array3d(decks, ways_out, decks, [
% ways out of deck d1
2, 4, 0, 0, 3, 4, 0, 0, 

% ways out of deck d2
4, 0, 0, 0, 0, 0, 0, 0,	

% ways out of deck d3
4, 0, 0, 0, 0, 0, 0, 0,	

% ways out of deck d4
0, 0, 0, 0,	0, 0, 0, 0,	

]);

